ENCUT = 500
ISMEAR = 0 ; SIGMA = 0.05
EDIFF= 1E-6 ; NELM = 200
IBRION = -1 ; NSW = 0
#KPAR = 4 ; NCORE = 12
LWAVE = F
LCHARG = F
LORBIT = 11
NBANDS = 96
LWANNIER90 = .TRUE.
