num_wann = 2 ! set to NBANDS by VASP(numbers of wannier orbital)
num_bands = 96 ! numbers of total bands

Begin Projections
C: pz
End Projections

begin unit_cell_cart
     2.4600000000000000    0.0000000000000000    0.0000000000000000
    -1.2300000000000000    2.1304224933000002    0.0000000000000000
     0.0000000000000000    0.0000000000000000   20.0000000000000000
end unit_cell_cart

begin atoms_cart
C    0.0000000000000088    1.4202816621999952   10.0000000000000000     
C    1.2299999999999911    0.7101408311000051   10.0000000000000000    
end atoms_cart

mp_grid =    24     24     1

#----outer window----#
dis_win_min = -23
dis_win_max = 10
##----inner window----#
dis_froz_min = -5
dis_froz_max = 0

num_iter = 4000
dis_num_iter = 4000
dis_conv_tol = 1.0e-10

write_hr = true
bands_plot = true
bands_num_points 81

begin kpoint_path
Gamma 0.0 0.0 0.0 M 0.5 0.0 0.0
M 0.5 0.0 0.0 K 0.333333 0.333333 0.0
K 0.333333 0.333333 0.0 Gamma 0.0 0.0 0.0
end kpoint_path

begin kpoints
      0.000000000000      0.000000000000      0.000000000000
      0.041666666667     -0.000000000000      0.000000000000
      0.083333333333      0.000000000000      0.000000000000
      0.125000000000     -0.000000000000      0.000000000000
      0.166666666667     -0.000000000000      0.000000000000
      0.208333333333     -0.000000000000      0.000000000000
      0.250000000000     -0.000000000000      0.000000000000
      0.291666666667      0.000000000000      0.000000000000
      0.333333333333      0.000000000000      0.000000000000
      0.375000000000     -0.000000000000      0.000000000000
      0.416666666667     -0.000000000000      0.000000000000
      0.458333333333     -0.000000000000      0.000000000000
      0.500000000000     -0.000000000000      0.000000000000
      0.041666666667      0.041666666667      0.000000000000
      0.083333333333      0.041666666667      0.000000000000
      0.125000000000      0.041666666667      0.000000000000
      0.166666666667      0.041666666667      0.000000000000
      0.208333333333      0.041666666667      0.000000000000
      0.250000000000      0.041666666667      0.000000000000
      0.291666666667      0.041666666667      0.000000000000
      0.333333333333      0.041666666667      0.000000000000
      0.375000000000      0.041666666667      0.000000000000
      0.416666666667      0.041666666667      0.000000000000
      0.458333333333      0.041666666667      0.000000000000
      0.083333333333      0.083333333333      0.000000000000
      0.125000000000      0.083333333333      0.000000000000
      0.166666666667      0.083333333333      0.000000000000
      0.208333333333      0.083333333333      0.000000000000
      0.250000000000      0.083333333333      0.000000000000
      0.291666666667      0.083333333333      0.000000000000
      0.333333333333      0.083333333333      0.000000000000
      0.375000000000      0.083333333333      0.000000000000
      0.416666666667      0.083333333333      0.000000000000
      0.458333333333      0.083333333333      0.000000000000
      0.125000000000      0.125000000000      0.000000000000
      0.166666666667      0.125000000000      0.000000000000
      0.208333333333      0.125000000000      0.000000000000
      0.250000000000      0.125000000000      0.000000000000
      0.291666666667      0.125000000000      0.000000000000
      0.333333333333      0.125000000000      0.000000000000
      0.375000000000      0.125000000000      0.000000000000
      0.416666666667      0.125000000000      0.000000000000
      0.166666666667      0.166666666667      0.000000000000
      0.208333333333      0.166666666667      0.000000000000
      0.250000000000      0.166666666667      0.000000000000
      0.291666666667      0.166666666667      0.000000000000
      0.333333333333      0.166666666667      0.000000000000
      0.375000000000      0.166666666667      0.000000000000
      0.416666666667      0.166666666667      0.000000000000
      0.208333333333      0.208333333333      0.000000000000
      0.250000000000      0.208333333333      0.000000000000
      0.291666666667      0.208333333333      0.000000000000
      0.333333333333      0.208333333333      0.000000000000
      0.375000000000      0.208333333333      0.000000000000
      0.250000000000      0.250000000000      0.000000000000
      0.291666666667      0.250000000000      0.000000000000
      0.333333333333      0.250000000000      0.000000000000
      0.375000000000      0.250000000000      0.000000000000
      0.291666666667      0.291666666667      0.000000000000
      0.333333333333      0.291666666667      0.000000000000
      0.333333333333      0.333333333333      0.000000000000
     -0.041666666667      0.000000000000      0.000000000000
      0.000000000000      0.041666666667      0.000000000000
     -0.000000000000     -0.041666666667      0.000000000000
     -0.041666666667      0.041666666667      0.000000000000
      0.041666666667     -0.041666666667      0.000000000000
     -0.083333333333      0.000000000000      0.000000000000
      0.000000000000      0.083333333333      0.000000000000
      0.000000000000     -0.083333333333      0.000000000000
     -0.083333333333      0.083333333333      0.000000000000
      0.083333333333     -0.083333333333      0.000000000000
     -0.125000000000      0.000000000000      0.000000000000
      0.000000000000      0.125000000000      0.000000000000
     -0.000000000000     -0.125000000000      0.000000000000
     -0.125000000000      0.125000000000      0.000000000000
      0.125000000000     -0.125000000000      0.000000000000
     -0.166666666667      0.000000000000      0.000000000000
      0.000000000000      0.166666666667      0.000000000000
     -0.000000000000     -0.166666666667      0.000000000000
     -0.166666666667      0.166666666667      0.000000000000
      0.166666666667     -0.166666666667      0.000000000000
     -0.208333333333      0.000000000000      0.000000000000
      0.000000000000      0.208333333333      0.000000000000
     -0.000000000000     -0.208333333333      0.000000000000
     -0.208333333333      0.208333333333      0.000000000000
      0.208333333333     -0.208333333333      0.000000000000
     -0.250000000000      0.000000000000      0.000000000000
      0.000000000000      0.250000000000      0.000000000000
     -0.000000000000     -0.250000000000      0.000000000000
     -0.250000000000      0.250000000000      0.000000000000
      0.250000000000     -0.250000000000      0.000000000000
     -0.291666666667      0.000000000000      0.000000000000
      0.000000000000      0.291666666667      0.000000000000
      0.000000000000     -0.291666666667      0.000000000000
     -0.291666666667      0.291666666667      0.000000000000
      0.291666666667     -0.291666666667      0.000000000000
     -0.333333333333      0.000000000000      0.000000000000
      0.000000000000      0.333333333333      0.000000000000
      0.000000000000     -0.333333333333      0.000000000000
     -0.333333333333      0.333333333333      0.000000000000
      0.333333333333     -0.333333333333      0.000000000000
     -0.375000000000      0.000000000000      0.000000000000
      0.000000000000      0.375000000000      0.000000000000
     -0.000000000000     -0.375000000000      0.000000000000
     -0.375000000000      0.375000000000      0.000000000000
      0.375000000000     -0.375000000000      0.000000000000
     -0.416666666667      0.000000000000      0.000000000000
      0.000000000000      0.416666666667      0.000000000000
     -0.000000000000     -0.416666666667      0.000000000000
     -0.416666666667      0.416666666667      0.000000000000
      0.416666666667     -0.416666666667      0.000000000000
     -0.458333333333      0.000000000000      0.000000000000
      0.000000000000      0.458333333333      0.000000000000
     -0.000000000000     -0.458333333333      0.000000000000
     -0.458333333333      0.458333333333      0.000000000000
      0.458333333333     -0.458333333333      0.000000000000
      0.000000000000      0.500000000000      0.000000000000
     -0.500000000000      0.500000000000      0.000000000000
     -0.041666666667     -0.041666666667      0.000000000000
     -0.041666666667      0.083333333333      0.000000000000
      0.041666666667     -0.083333333333      0.000000000000
     -0.083333333333      0.041666666667      0.000000000000
      0.083333333333     -0.041666666667      0.000000000000
     -0.083333333333     -0.041666666667      0.000000000000
     -0.041666666667      0.125000000000      0.000000000000
      0.041666666667     -0.125000000000      0.000000000000
     -0.125000000000      0.083333333333      0.000000000000
      0.125000000000     -0.083333333333      0.000000000000
      0.083333333333     -0.125000000000      0.000000000000
     -0.083333333333      0.125000000000      0.000000000000
     -0.041666666667     -0.083333333333      0.000000000000
      0.041666666667      0.083333333333      0.000000000000
     -0.125000000000      0.041666666667      0.000000000000
      0.125000000000     -0.041666666667      0.000000000000
     -0.125000000000     -0.041666666667      0.000000000000
     -0.041666666667      0.166666666667      0.000000000000
      0.041666666667     -0.166666666667      0.000000000000
     -0.166666666667      0.125000000000      0.000000000000
      0.166666666667     -0.125000000000      0.000000000000
      0.125000000000     -0.166666666667      0.000000000000
     -0.125000000000      0.166666666667      0.000000000000
     -0.041666666667     -0.125000000000      0.000000000000
      0.041666666667      0.125000000000      0.000000000000
     -0.166666666667      0.041666666667      0.000000000000
      0.166666666667     -0.041666666667      0.000000000000
     -0.166666666667     -0.041666666667      0.000000000000
     -0.041666666667      0.208333333333      0.000000000000
      0.041666666667     -0.208333333333      0.000000000000
     -0.208333333333      0.166666666667      0.000000000000
      0.208333333333     -0.166666666667      0.000000000000
      0.166666666667     -0.208333333333      0.000000000000
     -0.166666666667      0.208333333333      0.000000000000
     -0.041666666667     -0.166666666667      0.000000000000
      0.041666666667      0.166666666667      0.000000000000
     -0.208333333333      0.041666666667      0.000000000000
      0.208333333333     -0.041666666667      0.000000000000
     -0.208333333333     -0.041666666667      0.000000000000
     -0.041666666667      0.250000000000      0.000000000000
      0.041666666667     -0.250000000000      0.000000000000
     -0.250000000000      0.208333333333      0.000000000000
      0.250000000000     -0.208333333333      0.000000000000
      0.208333333333     -0.250000000000      0.000000000000
     -0.208333333333      0.250000000000      0.000000000000
     -0.041666666667     -0.208333333333      0.000000000000
      0.041666666667      0.208333333333      0.000000000000
     -0.250000000000      0.041666666667      0.000000000000
      0.250000000000     -0.041666666667      0.000000000000
     -0.250000000000     -0.041666666667      0.000000000000
     -0.041666666667      0.291666666667      0.000000000000
      0.041666666667     -0.291666666667      0.000000000000
     -0.291666666667      0.250000000000      0.000000000000
      0.291666666667     -0.250000000000      0.000000000000
      0.250000000000     -0.291666666667      0.000000000000
     -0.250000000000      0.291666666667      0.000000000000
     -0.041666666667     -0.250000000000      0.000000000000
      0.041666666667      0.250000000000      0.000000000000
     -0.291666666667      0.041666666667      0.000000000000
      0.291666666667     -0.041666666667      0.000000000000
     -0.291666666667     -0.041666666667      0.000000000000
     -0.041666666667      0.333333333333      0.000000000000
      0.041666666667     -0.333333333333      0.000000000000
     -0.333333333333      0.291666666667      0.000000000000
      0.333333333333     -0.291666666667      0.000000000000
      0.291666666667     -0.333333333333      0.000000000000
     -0.291666666667      0.333333333333      0.000000000000
     -0.041666666667     -0.291666666667      0.000000000000
      0.041666666667      0.291666666667      0.000000000000
     -0.333333333333      0.041666666667      0.000000000000
      0.333333333333     -0.041666666667      0.000000000000
     -0.333333333333     -0.041666666667      0.000000000000
     -0.041666666667      0.375000000000      0.000000000000
      0.041666666667     -0.375000000000      0.000000000000
     -0.375000000000      0.333333333333      0.000000000000
      0.375000000000     -0.333333333333      0.000000000000
      0.333333333333     -0.375000000000      0.000000000000
     -0.333333333333      0.375000000000      0.000000000000
     -0.041666666667     -0.333333333333      0.000000000000
      0.041666666667      0.333333333333      0.000000000000
     -0.375000000000      0.041666666667      0.000000000000
      0.375000000000     -0.041666666667      0.000000000000
     -0.375000000000     -0.041666666667      0.000000000000
     -0.041666666667      0.416666666667      0.000000000000
      0.041666666667     -0.416666666667      0.000000000000
     -0.416666666667      0.375000000000      0.000000000000
      0.416666666667     -0.375000000000      0.000000000000
      0.375000000000     -0.416666666667      0.000000000000
     -0.375000000000      0.416666666667      0.000000000000
     -0.041666666667     -0.375000000000      0.000000000000
      0.041666666667      0.375000000000      0.000000000000
     -0.416666666667      0.041666666667      0.000000000000
      0.416666666667     -0.041666666667      0.000000000000
     -0.416666666667     -0.041666666667      0.000000000000
     -0.041666666667      0.458333333333      0.000000000000
      0.041666666667     -0.458333333333      0.000000000000
     -0.458333333333      0.416666666667      0.000000000000
      0.458333333333     -0.416666666667      0.000000000000
      0.416666666667     -0.458333333333      0.000000000000
     -0.416666666667      0.458333333333      0.000000000000
     -0.041666666667     -0.416666666667      0.000000000000
      0.041666666667      0.416666666667      0.000000000000
     -0.458333333333      0.041666666667      0.000000000000
      0.458333333333     -0.041666666667      0.000000000000
     -0.458333333333     -0.041666666667      0.000000000000
     -0.041666666667      0.500000000000      0.000000000000
      0.041666666667     -0.500000000000      0.000000000000
     -0.500000000000      0.458333333333      0.000000000000
      0.500000000000     -0.458333333333      0.000000000000
      0.458333333333     -0.500000000000      0.000000000000
     -0.458333333333      0.500000000000      0.000000000000
     -0.041666666667     -0.458333333333      0.000000000000
      0.041666666667      0.458333333333      0.000000000000
     -0.500000000000      0.041666666667      0.000000000000
      0.500000000000     -0.041666666667      0.000000000000
     -0.083333333333     -0.083333333333      0.000000000000
     -0.083333333333      0.166666666667      0.000000000000
      0.083333333333     -0.166666666667      0.000000000000
     -0.166666666667      0.083333333333      0.000000000000
      0.166666666667     -0.083333333333      0.000000000000
     -0.125000000000     -0.083333333333      0.000000000000
     -0.083333333333      0.208333333333      0.000000000000
      0.083333333333     -0.208333333333      0.000000000000
     -0.208333333333      0.125000000000      0.000000000000
      0.208333333333     -0.125000000000      0.000000000000
      0.125000000000     -0.208333333333      0.000000000000
     -0.125000000000      0.208333333333      0.000000000000
     -0.083333333333     -0.125000000000      0.000000000000
      0.083333333333      0.125000000000      0.000000000000
     -0.208333333333      0.083333333333      0.000000000000
      0.208333333333     -0.083333333333      0.000000000000
     -0.166666666667     -0.083333333333      0.000000000000
     -0.083333333333      0.250000000000      0.000000000000
      0.083333333333     -0.250000000000      0.000000000000
     -0.250000000000      0.166666666667      0.000000000000
      0.250000000000     -0.166666666667      0.000000000000
      0.166666666667     -0.250000000000      0.000000000000
     -0.166666666667      0.250000000000      0.000000000000
     -0.083333333333     -0.166666666667      0.000000000000
      0.083333333333      0.166666666667      0.000000000000
     -0.250000000000      0.083333333333      0.000000000000
      0.250000000000     -0.083333333333      0.000000000000
     -0.208333333333     -0.083333333333      0.000000000000
     -0.083333333333      0.291666666667      0.000000000000
      0.083333333333     -0.291666666667      0.000000000000
     -0.291666666667      0.208333333333      0.000000000000
      0.291666666667     -0.208333333333      0.000000000000
      0.208333333333     -0.291666666667      0.000000000000
     -0.208333333333      0.291666666667      0.000000000000
     -0.083333333333     -0.208333333333      0.000000000000
      0.083333333333      0.208333333333      0.000000000000
     -0.291666666667      0.083333333333      0.000000000000
      0.291666666667     -0.083333333333      0.000000000000
     -0.250000000000     -0.083333333333      0.000000000000
     -0.083333333333      0.333333333333      0.000000000000
      0.083333333333     -0.333333333333      0.000000000000
     -0.333333333333      0.250000000000      0.000000000000
      0.333333333333     -0.250000000000      0.000000000000
      0.250000000000     -0.333333333333      0.000000000000
     -0.250000000000      0.333333333333      0.000000000000
     -0.083333333333     -0.250000000000      0.000000000000
      0.083333333333      0.250000000000      0.000000000000
     -0.333333333333      0.083333333333      0.000000000000
      0.333333333333     -0.083333333333      0.000000000000
     -0.291666666667     -0.083333333333      0.000000000000
     -0.083333333333      0.375000000000      0.000000000000
      0.083333333333     -0.375000000000      0.000000000000
     -0.375000000000      0.291666666667      0.000000000000
      0.375000000000     -0.291666666667      0.000000000000
      0.291666666667     -0.375000000000      0.000000000000
     -0.291666666667      0.375000000000      0.000000000000
     -0.083333333333     -0.291666666667      0.000000000000
      0.083333333333      0.291666666667      0.000000000000
     -0.375000000000      0.083333333333      0.000000000000
      0.375000000000     -0.083333333333      0.000000000000
     -0.333333333333     -0.083333333333      0.000000000000
     -0.083333333333      0.416666666667      0.000000000000
      0.083333333333     -0.416666666667      0.000000000000
     -0.416666666667      0.333333333333      0.000000000000
      0.416666666667     -0.333333333333      0.000000000000
      0.333333333333     -0.416666666667      0.000000000000
     -0.333333333333      0.416666666667      0.000000000000
     -0.083333333333     -0.333333333333      0.000000000000
      0.083333333333      0.333333333333      0.000000000000
     -0.416666666667      0.083333333333      0.000000000000
      0.416666666667     -0.083333333333      0.000000000000
     -0.375000000000     -0.083333333333      0.000000000000
     -0.083333333333      0.458333333333      0.000000000000
      0.083333333333     -0.458333333333      0.000000000000
     -0.458333333333      0.375000000000      0.000000000000
      0.458333333333     -0.375000000000      0.000000000000
      0.375000000000     -0.458333333333      0.000000000000
     -0.375000000000      0.458333333333      0.000000000000
     -0.083333333333     -0.375000000000      0.000000000000
      0.083333333333      0.375000000000      0.000000000000
     -0.458333333333      0.083333333333      0.000000000000
      0.458333333333     -0.083333333333      0.000000000000
     -0.416666666667     -0.083333333333      0.000000000000
     -0.083333333333      0.500000000000      0.000000000000
      0.083333333333     -0.500000000000      0.000000000000
     -0.500000000000      0.416666666667      0.000000000000
      0.500000000000     -0.416666666667      0.000000000000
      0.416666666667     -0.500000000000      0.000000000000
     -0.416666666667      0.500000000000      0.000000000000
     -0.083333333333     -0.416666666667      0.000000000000
      0.083333333333      0.416666666667      0.000000000000
     -0.500000000000      0.083333333333      0.000000000000
      0.500000000000     -0.083333333333      0.000000000000
     -0.458333333333     -0.083333333333      0.000000000000
     -0.083333333333      0.541666666667      0.000000000000
      0.083333333333     -0.541666666667      0.000000000000
     -0.541666666667      0.458333333333      0.000000000000
      0.541666666667     -0.458333333333      0.000000000000
     -0.125000000000     -0.125000000000      0.000000000000
     -0.125000000000      0.250000000000      0.000000000000
      0.125000000000     -0.250000000000      0.000000000000
     -0.250000000000      0.125000000000      0.000000000000
      0.250000000000     -0.125000000000      0.000000000000
     -0.166666666667     -0.125000000000      0.000000000000
     -0.125000000000      0.291666666667      0.000000000000
      0.125000000000     -0.291666666667      0.000000000000
     -0.291666666667      0.166666666667      0.000000000000
      0.291666666667     -0.166666666667      0.000000000000
      0.166666666667     -0.291666666667      0.000000000000
     -0.166666666667      0.291666666667      0.000000000000
     -0.125000000000     -0.166666666667      0.000000000000
      0.125000000000      0.166666666667      0.000000000000
     -0.291666666667      0.125000000000      0.000000000000
      0.291666666667     -0.125000000000      0.000000000000
     -0.208333333333     -0.125000000000      0.000000000000
     -0.125000000000      0.333333333333      0.000000000000
      0.125000000000     -0.333333333333      0.000000000000
     -0.333333333333      0.208333333333      0.000000000000
      0.333333333333     -0.208333333333      0.000000000000
      0.208333333333     -0.333333333333      0.000000000000
     -0.208333333333      0.333333333333      0.000000000000
     -0.125000000000     -0.208333333333      0.000000000000
      0.125000000000      0.208333333333      0.000000000000
     -0.333333333333      0.125000000000      0.000000000000
      0.333333333333     -0.125000000000      0.000000000000
     -0.250000000000     -0.125000000000      0.000000000000
     -0.125000000000      0.375000000000      0.000000000000
      0.125000000000     -0.375000000000      0.000000000000
     -0.375000000000      0.250000000000      0.000000000000
      0.375000000000     -0.250000000000      0.000000000000
      0.250000000000     -0.375000000000      0.000000000000
     -0.250000000000      0.375000000000      0.000000000000
     -0.125000000000     -0.250000000000      0.000000000000
      0.125000000000      0.250000000000      0.000000000000
     -0.375000000000      0.125000000000      0.000000000000
      0.375000000000     -0.125000000000      0.000000000000
     -0.291666666667     -0.125000000000      0.000000000000
     -0.125000000000      0.416666666667      0.000000000000
      0.125000000000     -0.416666666667      0.000000000000
     -0.416666666667      0.291666666667      0.000000000000
      0.416666666667     -0.291666666667      0.000000000000
      0.291666666667     -0.416666666667      0.000000000000
     -0.291666666667      0.416666666667      0.000000000000
     -0.125000000000     -0.291666666667      0.000000000000
      0.125000000000      0.291666666667      0.000000000000
     -0.416666666667      0.125000000000      0.000000000000
      0.416666666667     -0.125000000000      0.000000000000
     -0.333333333333     -0.125000000000      0.000000000000
     -0.125000000000      0.458333333333      0.000000000000
      0.125000000000     -0.458333333333      0.000000000000
     -0.458333333333      0.333333333333      0.000000000000
      0.458333333333     -0.333333333333      0.000000000000
      0.333333333333     -0.458333333333      0.000000000000
     -0.333333333333      0.458333333333      0.000000000000
     -0.125000000000     -0.333333333333      0.000000000000
      0.125000000000      0.333333333333      0.000000000000
     -0.458333333333      0.125000000000      0.000000000000
      0.458333333333     -0.125000000000      0.000000000000
     -0.375000000000     -0.125000000000      0.000000000000
     -0.125000000000      0.500000000000      0.000000000000
      0.125000000000     -0.500000000000      0.000000000000
     -0.500000000000      0.375000000000      0.000000000000
      0.500000000000     -0.375000000000      0.000000000000
      0.375000000000     -0.500000000000      0.000000000000
     -0.375000000000      0.500000000000      0.000000000000
     -0.125000000000     -0.375000000000      0.000000000000
      0.125000000000      0.375000000000      0.000000000000
     -0.500000000000      0.125000000000      0.000000000000
      0.500000000000     -0.125000000000      0.000000000000
     -0.416666666667     -0.125000000000      0.000000000000
     -0.125000000000      0.541666666667      0.000000000000
      0.125000000000     -0.541666666667      0.000000000000
     -0.541666666667      0.416666666667      0.000000000000
      0.541666666667     -0.416666666667      0.000000000000
      0.416666666667     -0.541666666667      0.000000000000
     -0.416666666667      0.541666666667      0.000000000000
     -0.125000000000     -0.416666666667      0.000000000000
      0.125000000000      0.416666666667      0.000000000000
     -0.541666666667      0.125000000000      0.000000000000
      0.541666666667     -0.125000000000      0.000000000000
     -0.166666666667     -0.166666666667      0.000000000000
     -0.166666666667      0.333333333333      0.000000000000
      0.166666666667     -0.333333333333      0.000000000000
     -0.333333333333      0.166666666667      0.000000000000
      0.333333333333     -0.166666666667      0.000000000000
     -0.208333333333     -0.166666666667      0.000000000000
     -0.166666666667      0.375000000000      0.000000000000
      0.166666666667     -0.375000000000      0.000000000000
     -0.375000000000      0.208333333333      0.000000000000
      0.375000000000     -0.208333333333      0.000000000000
      0.208333333333     -0.375000000000      0.000000000000
     -0.208333333333      0.375000000000      0.000000000000
     -0.166666666667     -0.208333333333      0.000000000000
      0.166666666667      0.208333333333      0.000000000000
     -0.375000000000      0.166666666667      0.000000000000
      0.375000000000     -0.166666666667      0.000000000000
     -0.250000000000     -0.166666666667      0.000000000000
     -0.166666666667      0.416666666667      0.000000000000
      0.166666666667     -0.416666666667      0.000000000000
     -0.416666666667      0.250000000000      0.000000000000
      0.416666666667     -0.250000000000      0.000000000000
      0.250000000000     -0.416666666667      0.000000000000
     -0.250000000000      0.416666666667      0.000000000000
     -0.166666666667     -0.250000000000      0.000000000000
      0.166666666667      0.250000000000      0.000000000000
     -0.416666666667      0.166666666667      0.000000000000
      0.416666666667     -0.166666666667      0.000000000000
     -0.291666666667     -0.166666666667      0.000000000000
     -0.166666666667      0.458333333333      0.000000000000
      0.166666666667     -0.458333333333      0.000000000000
     -0.458333333333      0.291666666667      0.000000000000
      0.458333333333     -0.291666666667      0.000000000000
      0.291666666667     -0.458333333333      0.000000000000
     -0.291666666667      0.458333333333      0.000000000000
     -0.166666666667     -0.291666666667      0.000000000000
      0.166666666667      0.291666666667      0.000000000000
     -0.458333333333      0.166666666667      0.000000000000
      0.458333333333     -0.166666666667      0.000000000000
     -0.333333333333     -0.166666666667      0.000000000000
     -0.166666666667      0.500000000000      0.000000000000
      0.166666666667     -0.500000000000      0.000000000000
     -0.500000000000      0.333333333333      0.000000000000
      0.500000000000     -0.333333333333      0.000000000000
      0.333333333333     -0.500000000000      0.000000000000
     -0.333333333333      0.500000000000      0.000000000000
     -0.166666666667     -0.333333333333      0.000000000000
      0.166666666667      0.333333333333      0.000000000000
     -0.500000000000      0.166666666667      0.000000000000
      0.500000000000     -0.166666666667      0.000000000000
     -0.375000000000     -0.166666666667      0.000000000000
     -0.166666666667      0.541666666667      0.000000000000
      0.166666666667     -0.541666666667      0.000000000000
     -0.541666666667      0.375000000000      0.000000000000
      0.541666666667     -0.375000000000      0.000000000000
      0.375000000000     -0.541666666667      0.000000000000
     -0.375000000000      0.541666666667      0.000000000000
     -0.166666666667     -0.375000000000      0.000000000000
      0.166666666667      0.375000000000      0.000000000000
     -0.541666666667      0.166666666667      0.000000000000
      0.541666666667     -0.166666666667      0.000000000000
     -0.416666666667     -0.166666666667      0.000000000000
     -0.166666666667      0.583333333333      0.000000000000